units 		real
region 		box block 0 300 0 300 0 300 
create_box 		1 box
create_atoms 	1 random 1000 12345 box
mass 			1 39.948
velocity 		all create 120 67890
pair_style 		lj/cut 8.4880
pair_coeff 		* * 0.23209 3.3952
fix 			NVE all nve
thermo 		100
dump			traj all atom 50 traj.lammpstrj
dump_modify		traj sort id
run			5000
